************************************************************************
file with basedata            : md377_.bas
initial value random generator: 381666724
************************************************************************
projects                      :  1
jobs (incl. supersource/sink ):  22
horizon                       :  162
RESOURCES
  - renewable                 :  2   R
  - nonrenewable              :  2   N
  - doubly constrained        :  0   D
************************************************************************
PROJECT INFORMATION:
pronr.  #jobs rel.date duedate tardcost  MPM-Time
    1     20      0       21       19       21
************************************************************************
PRECEDENCE RELATIONS:
jobnr.    #modes  #successors   successors
   1        1          3           2   3   4
   2        3          3          15  16  21
   3        3          3           5   7  16
   4        3          2          11  18
   5        3          3           6  10  17
   6        3          2           8  18
   7        3          3           8   9  11
   8        3          2          12  21
   9        3          2          10  13
  10        3          1          21
  11        3          2          12  13
  12        3          2          19  20
  13        3          2          14  20
  14        3          1          15
  15        3          1          17
  16        3          2          17  18
  17        3          1          19
  18        3          2          19  20
  19        3          1          22
  20        3          1          22
  21        3          1          22
  22        1          0        
************************************************************************
REQUESTS/DURATIONS:
jobnr. mode duration  R 1  R 2  N 1  N 2
------------------------------------------------------------------------
  1      1     0       0    0    0    0
  2      1     6       9    0    7    8
         2     6       4    0    7    9
         3     9       0   10    6    8
  3      1     2       8    0    6   10
         2     2       0    6    6   10
         3     5       9    0    5   10
  4      1     5       0    4    6    9
         2     6       4    0    4    6
         3     8       3    0    2    5
  5      1     2       3    0    6    7
         2     3       2    0    6    5
         3     9       2    0    2    3
  6      1     1       5    0    6   10
         2     4       5    0    5    7
         3     9       4    0    2    7
  7      1     1       0    4    7    6
         2     2       0    3    7    6
         3     8       0    3    7    4
  8      1     3       0    7    6    5
         2     5       0    7    5    4
         3     9       2    0    3    3
  9      1     2       0    6    6    8
         2     7       3    0    5    8
         3     8       0    5    5    6
 10      1     2       6    0    9    8
         2     7       6    0    6    7
         3    10       2    0    6    5
 11      1     1       0    9    7    8
         2     6       0    8    6    5
         3     9       7    0    5    1
 12      1     5      10    0    7    6
         2     6      10    0    5    4
         3     7       9    0    4    4
 13      1     2       1    0    3    7
         2     2       2    0    4    5
         3     8       0    5    2    5
 14      1     2       0    7    5    3
         2     8       0    5    5    2
         3     8       4    0    4    2
 15      1     2       0    7    7    3
         2     5       3    0    5    3
         3     5       0    6    2    3
 16      1     1       9    0    9    3
         2     6       5    0    7    2
         3     7       4    0    5    2
 17      1     5       6    0    9    5
         2     8       0    6    9    5
         3    10       5    0    8    5
 18      1     2       7    0    2    6
         2     5       0    8    2    6
         3    10       5    0    2    6
 19      1     4       0    5    8    9
         2     5       0    4    6    9
         3    10       5    0    5    8
 20      1     1       0    2    7    9
         2     2       0    1    6    6
         3     3      10    0    3    6
 21      1     4       9    0    9    3
         2     5       8    0    8    3
         3    10       0    1    8    3
 22      1     0       0    0    0    0
************************************************************************
RESOURCEAVAILABILITIES:
  R 1  R 2  N 1  N 2
   13    9  133  134
************************************************************************
MAXIMAL LAGS:
from  to  type  delay
    1   22   ES      0
    1    2   ES      0
    2   22   ES      0
    1    3   ES      0
    3   22   ES      0
    1    4   ES      0
    4   22   ES      0
    1    5   ES      0
    5   22   ES      0
    1    6   ES      0
    6   22   ES      0
    1    7   ES      0
    7   22   ES      0
    1    8   ES      0
    8   22   ES      0
    1    9   ES      0
    9   22   ES      0
    1   10   ES      0
   10   22   ES      0
    1   11   ES      0
   11   22   ES      0
    1   12   ES      0
   12   22   ES      0
    1   13   ES      0
   13   22   ES      0
    1   14   ES      0
   14   22   ES      0
    1   15   ES      0
   15   22   ES      0
    1   16   ES      0
   16   22   ES      0
    1   17   ES      0
   17   22   ES      0
    1   18   ES      0
   18   22   ES      0
    1   19   ES      0
   19   22   ES      0
    1   20   ES      0
   20   22   ES      0
    1   21   ES      0
   21   22   ES      0
    1   22   ES      0
    2   15   SS      5
    2   15   SE    -10
    2   15   ES      7
    2   15   EE     -3
    2   16   SS    -12
    2   16   SE    -10
    2   16   ES     12
    2   16   EE     -4
    2   21   SS      0
    2   21   SE      7
   21    2   SE      0
    2   21   ES      0
    2   21   EE    -10
    3    5   SS     10
    3    5   SE     -5
    3    5   ES      0
    3    5   EE    -11
    3    7   SS      2
    3    7   SE      3
    3    7   ES     -8
    3    7   EE      3
    3   16   SS     -7
    3   16   SE    -11
    3   16   ES      8
    3   16   EE     11
    4   11   SS     -3
    4   11   SE     -1
    4   11   ES    -11
    4   11   EE     10
    4   18   SS     10
    4   18   SE      6
    4   18   ES      5
    4   18   EE    -12
    5    6   SS      1
    5    6   SE     11
    5    6   ES     -6
    5    6   EE     10
    5   10   SS      9
    5   10   SE     -1
    5   10   ES     -5
    5   10   EE     -5
    5   17   SS     -6
    5   17   SE     -1
    5   17   ES    -12
    5   17   EE     -9
    6    8   SS      0
    6    8   SE     10
    6    8   ES     -7
    6    8   EE      1
    6   18   SS     -8
    6   18   SE     -2
    6   18   ES    -10
    6   18   EE    -11
    7    8   SS     -3
    7    8   SE      6
    7    8   ES     -4
    7    8   EE      0
    7    9   SS     -9
    7    9   SE      3
    7    9   ES     -5
    7    9   EE    -11
    7   11   SS     -1
    7   11   SE      9
    7   11   ES    -10
    7   11   EE     11
    8   12   SS     -2
    8   12   SE     -9
    8   12   ES     -6
    8   12   EE     -5
    8   21   SS      9
    8   21   SE     -8
    8   21   ES    -12
    8   21   EE      6
    9   10   SS      0
    9   10   SE      2
    9   10   ES     -6
    9   10   EE    -11
    9   13   SS      6
    9   13   SE     -8
    9   13   ES     -3
    9   13   EE    -12
   10   21   SS      3
   10   21   SE     -3
   10   21   ES    -10
   10   21   EE      8
   11   12   SS     -6
   11   12   SE     -2
   11   12   ES      6
   11   12   EE      8
   11   13   SS      9
   11   13   SE      1
   11   13   ES      1
   11   13   EE     -2
   12   19   SS     -5
   12   19   SE     -5
   12   19   ES      6
   12   19   EE    -11
   12   20   SS     -5
   12   20   SE      0
   12   20   ES     -5
   12   20   EE      9
   13   14   SS      4
   13   14   SE     -1
   13   14   ES      3
   13   14   EE     -4
   13   20   SS     -6
   13   20   SE     -5
   13   20   ES      7
   13   20   EE     -9
   14   15   SS      6
   14   15   SE     -2
   14   15   ES      4
   14   15   EE    -12
   15   17   SS     10
   15   17   SE    -12
   15   17   ES    -12
   15   17   EE      5
   16   17   SS     -3
   16   17   SE     -9
   16   17   ES      0
   16   17   EE     -8
   16   18   SS      9
   16   18   SE      0
   16   18   ES      3
   16   18   EE     -1
   17   19   SS    -11
   17   19   SE    -10
   17   19   ES     10
   17   19   EE     -3
   18   19   SS      1
   18   19   SE      4
   18   19   ES     -5
   18   19   EE      8
   18   20   SS     -9
   18   20   SE     -4
   18   20   ES      0
   18   20   EE     -1
************************************************************************
